\* Bin_Packing_Problem *\
Minimize
Minimize_Bins_Used: BinUsed_0 + BinUsed_1 + BinUsed_10 + BinUsed_11
 + BinUsed_12 + BinUsed_13 + BinUsed_14 + BinUsed_15 + BinUsed_16 + BinUsed_17
 + BinUsed_18 + BinUsed_19 + BinUsed_2 + BinUsed_20 + BinUsed_21 + BinUsed_22
 + BinUsed_23 + BinUsed_24 + BinUsed_25 + BinUsed_26 + BinUsed_27 + BinUsed_28
 + BinUsed_29 + BinUsed_3 + BinUsed_30 + BinUsed_31 + BinUsed_4 + BinUsed_5
 + BinUsed_6 + BinUsed_7 + BinUsed_8 + BinUsed_9
Subject To
An_item_can_be_in_only_1_bin____a: itemInBin_('a',_0) + itemInBin_('a',_1)
 + itemInBin_('a',_10) + itemInBin_('a',_11) + itemInBin_('a',_12)
 + itemInBin_('a',_13) + itemInBin_('a',_14) + itemInBin_('a',_15)
 + itemInBin_('a',_16) + itemInBin_('a',_17) + itemInBin_('a',_18)
 + itemInBin_('a',_19) + itemInBin_('a',_2) + itemInBin_('a',_20)
 + itemInBin_('a',_21) + itemInBin_('a',_22) + itemInBin_('a',_23)
 + itemInBin_('a',_24) + itemInBin_('a',_25) + itemInBin_('a',_26)
 + itemInBin_('a',_27) + itemInBin_('a',_28) + itemInBin_('a',_29)
 + itemInBin_('a',_3) + itemInBin_('a',_30) + itemInBin_('a',_31)
 + itemInBin_('a',_4) + itemInBin_('a',_5) + itemInBin_('a',_6)
 + itemInBin_('a',_7) + itemInBin_('a',_8) + itemInBin_('a',_9) = 1
An_item_can_be_in_only_1_bin____b: itemInBin_('b',_0) + itemInBin_('b',_1)
 + itemInBin_('b',_10) + itemInBin_('b',_11) + itemInBin_('b',_12)
 + itemInBin_('b',_13) + itemInBin_('b',_14) + itemInBin_('b',_15)
 + itemInBin_('b',_16) + itemInBin_('b',_17) + itemInBin_('b',_18)
 + itemInBin_('b',_19) + itemInBin_('b',_2) + itemInBin_('b',_20)
 + itemInBin_('b',_21) + itemInBin_('b',_22) + itemInBin_('b',_23)
 + itemInBin_('b',_24) + itemInBin_('b',_25) + itemInBin_('b',_26)
 + itemInBin_('b',_27) + itemInBin_('b',_28) + itemInBin_('b',_29)
 + itemInBin_('b',_3) + itemInBin_('b',_30) + itemInBin_('b',_31)
 + itemInBin_('b',_4) + itemInBin_('b',_5) + itemInBin_('b',_6)
 + itemInBin_('b',_7) + itemInBin_('b',_8) + itemInBin_('b',_9) = 1
An_item_can_be_in_only_1_bin____c: itemInBin_('c',_0) + itemInBin_('c',_1)
 + itemInBin_('c',_10) + itemInBin_('c',_11) + itemInBin_('c',_12)
 + itemInBin_('c',_13) + itemInBin_('c',_14) + itemInBin_('c',_15)
 + itemInBin_('c',_16) + itemInBin_('c',_17) + itemInBin_('c',_18)
 + itemInBin_('c',_19) + itemInBin_('c',_2) + itemInBin_('c',_20)
 + itemInBin_('c',_21) + itemInBin_('c',_22) + itemInBin_('c',_23)
 + itemInBin_('c',_24) + itemInBin_('c',_25) + itemInBin_('c',_26)
 + itemInBin_('c',_27) + itemInBin_('c',_28) + itemInBin_('c',_29)
 + itemInBin_('c',_3) + itemInBin_('c',_30) + itemInBin_('c',_31)
 + itemInBin_('c',_4) + itemInBin_('c',_5) + itemInBin_('c',_6)
 + itemInBin_('c',_7) + itemInBin_('c',_8) + itemInBin_('c',_9) = 1
An_item_can_be_in_only_1_bin____d: itemInBin_('d',_0) + itemInBin_('d',_1)
 + itemInBin_('d',_10) + itemInBin_('d',_11) + itemInBin_('d',_12)
 + itemInBin_('d',_13) + itemInBin_('d',_14) + itemInBin_('d',_15)
 + itemInBin_('d',_16) + itemInBin_('d',_17) + itemInBin_('d',_18)
 + itemInBin_('d',_19) + itemInBin_('d',_2) + itemInBin_('d',_20)
 + itemInBin_('d',_21) + itemInBin_('d',_22) + itemInBin_('d',_23)
 + itemInBin_('d',_24) + itemInBin_('d',_25) + itemInBin_('d',_26)
 + itemInBin_('d',_27) + itemInBin_('d',_28) + itemInBin_('d',_29)
 + itemInBin_('d',_3) + itemInBin_('d',_30) + itemInBin_('d',_31)
 + itemInBin_('d',_4) + itemInBin_('d',_5) + itemInBin_('d',_6)
 + itemInBin_('d',_7) + itemInBin_('d',_8) + itemInBin_('d',_9) = 1
An_item_can_be_in_only_1_bin____e: itemInBin_('e',_0) + itemInBin_('e',_1)
 + itemInBin_('e',_10) + itemInBin_('e',_11) + itemInBin_('e',_12)
 + itemInBin_('e',_13) + itemInBin_('e',_14) + itemInBin_('e',_15)
 + itemInBin_('e',_16) + itemInBin_('e',_17) + itemInBin_('e',_18)
 + itemInBin_('e',_19) + itemInBin_('e',_2) + itemInBin_('e',_20)
 + itemInBin_('e',_21) + itemInBin_('e',_22) + itemInBin_('e',_23)
 + itemInBin_('e',_24) + itemInBin_('e',_25) + itemInBin_('e',_26)
 + itemInBin_('e',_27) + itemInBin_('e',_28) + itemInBin_('e',_29)
 + itemInBin_('e',_3) + itemInBin_('e',_30) + itemInBin_('e',_31)
 + itemInBin_('e',_4) + itemInBin_('e',_5) + itemInBin_('e',_6)
 + itemInBin_('e',_7) + itemInBin_('e',_8) + itemInBin_('e',_9) = 1
An_item_can_be_in_only_1_bin____f: itemInBin_('f',_0) + itemInBin_('f',_1)
 + itemInBin_('f',_10) + itemInBin_('f',_11) + itemInBin_('f',_12)
 + itemInBin_('f',_13) + itemInBin_('f',_14) + itemInBin_('f',_15)
 + itemInBin_('f',_16) + itemInBin_('f',_17) + itemInBin_('f',_18)
 + itemInBin_('f',_19) + itemInBin_('f',_2) + itemInBin_('f',_20)
 + itemInBin_('f',_21) + itemInBin_('f',_22) + itemInBin_('f',_23)
 + itemInBin_('f',_24) + itemInBin_('f',_25) + itemInBin_('f',_26)
 + itemInBin_('f',_27) + itemInBin_('f',_28) + itemInBin_('f',_29)
 + itemInBin_('f',_3) + itemInBin_('f',_30) + itemInBin_('f',_31)
 + itemInBin_('f',_4) + itemInBin_('f',_5) + itemInBin_('f',_6)
 + itemInBin_('f',_7) + itemInBin_('f',_8) + itemInBin_('f',_9) = 1
An_item_can_be_in_only_1_bin____g: itemInBin_('g',_0) + itemInBin_('g',_1)
 + itemInBin_('g',_10) + itemInBin_('g',_11) + itemInBin_('g',_12)
 + itemInBin_('g',_13) + itemInBin_('g',_14) + itemInBin_('g',_15)
 + itemInBin_('g',_16) + itemInBin_('g',_17) + itemInBin_('g',_18)
 + itemInBin_('g',_19) + itemInBin_('g',_2) + itemInBin_('g',_20)
 + itemInBin_('g',_21) + itemInBin_('g',_22) + itemInBin_('g',_23)
 + itemInBin_('g',_24) + itemInBin_('g',_25) + itemInBin_('g',_26)
 + itemInBin_('g',_27) + itemInBin_('g',_28) + itemInBin_('g',_29)
 + itemInBin_('g',_3) + itemInBin_('g',_30) + itemInBin_('g',_31)
 + itemInBin_('g',_4) + itemInBin_('g',_5) + itemInBin_('g',_6)
 + itemInBin_('g',_7) + itemInBin_('g',_8) + itemInBin_('g',_9) = 1
An_item_can_be_in_only_1_bin____h: itemInBin_('h',_0) + itemInBin_('h',_1)
 + itemInBin_('h',_10) + itemInBin_('h',_11) + itemInBin_('h',_12)
 + itemInBin_('h',_13) + itemInBin_('h',_14) + itemInBin_('h',_15)
 + itemInBin_('h',_16) + itemInBin_('h',_17) + itemInBin_('h',_18)
 + itemInBin_('h',_19) + itemInBin_('h',_2) + itemInBin_('h',_20)
 + itemInBin_('h',_21) + itemInBin_('h',_22) + itemInBin_('h',_23)
 + itemInBin_('h',_24) + itemInBin_('h',_25) + itemInBin_('h',_26)
 + itemInBin_('h',_27) + itemInBin_('h',_28) + itemInBin_('h',_29)
 + itemInBin_('h',_3) + itemInBin_('h',_30) + itemInBin_('h',_31)
 + itemInBin_('h',_4) + itemInBin_('h',_5) + itemInBin_('h',_6)
 + itemInBin_('h',_7) + itemInBin_('h',_8) + itemInBin_('h',_9) = 1
An_item_can_be_in_only_1_bin____i: itemInBin_('i',_0) + itemInBin_('i',_1)
 + itemInBin_('i',_10) + itemInBin_('i',_11) + itemInBin_('i',_12)
 + itemInBin_('i',_13) + itemInBin_('i',_14) + itemInBin_('i',_15)
 + itemInBin_('i',_16) + itemInBin_('i',_17) + itemInBin_('i',_18)
 + itemInBin_('i',_19) + itemInBin_('i',_2) + itemInBin_('i',_20)
 + itemInBin_('i',_21) + itemInBin_('i',_22) + itemInBin_('i',_23)
 + itemInBin_('i',_24) + itemInBin_('i',_25) + itemInBin_('i',_26)
 + itemInBin_('i',_27) + itemInBin_('i',_28) + itemInBin_('i',_29)
 + itemInBin_('i',_3) + itemInBin_('i',_30) + itemInBin_('i',_31)
 + itemInBin_('i',_4) + itemInBin_('i',_5) + itemInBin_('i',_6)
 + itemInBin_('i',_7) + itemInBin_('i',_8) + itemInBin_('i',_9) = 1
An_item_can_be_in_only_1_bin____k: itemInBin_('k',_0) + itemInBin_('k',_1)
 + itemInBin_('k',_10) + itemInBin_('k',_11) + itemInBin_('k',_12)
 + itemInBin_('k',_13) + itemInBin_('k',_14) + itemInBin_('k',_15)
 + itemInBin_('k',_16) + itemInBin_('k',_17) + itemInBin_('k',_18)
 + itemInBin_('k',_19) + itemInBin_('k',_2) + itemInBin_('k',_20)
 + itemInBin_('k',_21) + itemInBin_('k',_22) + itemInBin_('k',_23)
 + itemInBin_('k',_24) + itemInBin_('k',_25) + itemInBin_('k',_26)
 + itemInBin_('k',_27) + itemInBin_('k',_28) + itemInBin_('k',_29)
 + itemInBin_('k',_3) + itemInBin_('k',_30) + itemInBin_('k',_31)
 + itemInBin_('k',_4) + itemInBin_('k',_5) + itemInBin_('k',_6)
 + itemInBin_('k',_7) + itemInBin_('k',_8) + itemInBin_('k',_9) = 1
An_item_can_be_in_only_1_bin____l: itemInBin_('l',_0) + itemInBin_('l',_1)
 + itemInBin_('l',_10) + itemInBin_('l',_11) + itemInBin_('l',_12)
 + itemInBin_('l',_13) + itemInBin_('l',_14) + itemInBin_('l',_15)
 + itemInBin_('l',_16) + itemInBin_('l',_17) + itemInBin_('l',_18)
 + itemInBin_('l',_19) + itemInBin_('l',_2) + itemInBin_('l',_20)
 + itemInBin_('l',_21) + itemInBin_('l',_22) + itemInBin_('l',_23)
 + itemInBin_('l',_24) + itemInBin_('l',_25) + itemInBin_('l',_26)
 + itemInBin_('l',_27) + itemInBin_('l',_28) + itemInBin_('l',_29)
 + itemInBin_('l',_3) + itemInBin_('l',_30) + itemInBin_('l',_31)
 + itemInBin_('l',_4) + itemInBin_('l',_5) + itemInBin_('l',_6)
 + itemInBin_('l',_7) + itemInBin_('l',_8) + itemInBin_('l',_9) = 1
An_item_can_be_in_only_1_bin____m: itemInBin_('m',_0) + itemInBin_('m',_1)
 + itemInBin_('m',_10) + itemInBin_('m',_11) + itemInBin_('m',_12)
 + itemInBin_('m',_13) + itemInBin_('m',_14) + itemInBin_('m',_15)
 + itemInBin_('m',_16) + itemInBin_('m',_17) + itemInBin_('m',_18)
 + itemInBin_('m',_19) + itemInBin_('m',_2) + itemInBin_('m',_20)
 + itemInBin_('m',_21) + itemInBin_('m',_22) + itemInBin_('m',_23)
 + itemInBin_('m',_24) + itemInBin_('m',_25) + itemInBin_('m',_26)
 + itemInBin_('m',_27) + itemInBin_('m',_28) + itemInBin_('m',_29)
 + itemInBin_('m',_3) + itemInBin_('m',_30) + itemInBin_('m',_31)
 + itemInBin_('m',_4) + itemInBin_('m',_5) + itemInBin_('m',_6)
 + itemInBin_('m',_7) + itemInBin_('m',_8) + itemInBin_('m',_9) = 1
An_item_can_be_in_only_1_bin____n: itemInBin_('n',_0) + itemInBin_('n',_1)
 + itemInBin_('n',_10) + itemInBin_('n',_11) + itemInBin_('n',_12)
 + itemInBin_('n',_13) + itemInBin_('n',_14) + itemInBin_('n',_15)
 + itemInBin_('n',_16) + itemInBin_('n',_17) + itemInBin_('n',_18)
 + itemInBin_('n',_19) + itemInBin_('n',_2) + itemInBin_('n',_20)
 + itemInBin_('n',_21) + itemInBin_('n',_22) + itemInBin_('n',_23)
 + itemInBin_('n',_24) + itemInBin_('n',_25) + itemInBin_('n',_26)
 + itemInBin_('n',_27) + itemInBin_('n',_28) + itemInBin_('n',_29)
 + itemInBin_('n',_3) + itemInBin_('n',_30) + itemInBin_('n',_31)
 + itemInBin_('n',_4) + itemInBin_('n',_5) + itemInBin_('n',_6)
 + itemInBin_('n',_7) + itemInBin_('n',_8) + itemInBin_('n',_9) = 1
The_sum_of_item_sizes_must_be_smaller_than_the_bin____0: - 32 BinUsed_0
 + 5 itemInBin_('a',_0) + 6 itemInBin_('b',_0) + 7 itemInBin_('c',_0)
 + 32 itemInBin_('d',_0) + 2 itemInBin_('e',_0) + 32 itemInBin_('f',_0)
 + 5 itemInBin_('g',_0) + 7 itemInBin_('h',_0) + 9 itemInBin_('i',_0)
 + 12 itemInBin_('k',_0) + 11 itemInBin_('l',_0) + itemInBin_('m',_0)
 + 2 itemInBin_('n',_0) <= 0
The_sum_of_item_sizes_must_be_smaller_than_the_bin____1: - 32 BinUsed_1
 + 5 itemInBin_('a',_1) + 6 itemInBin_('b',_1) + 7 itemInBin_('c',_1)
 + 32 itemInBin_('d',_1) + 2 itemInBin_('e',_1) + 32 itemInBin_('f',_1)
 + 5 itemInBin_('g',_1) + 7 itemInBin_('h',_1) + 9 itemInBin_('i',_1)
 + 12 itemInBin_('k',_1) + 11 itemInBin_('l',_1) + itemInBin_('m',_1)
 + 2 itemInBin_('n',_1) <= 0
The_sum_of_item_sizes_must_be_smaller_than_the_bin____10: - 32 BinUsed_10
 + 5 itemInBin_('a',_10) + 6 itemInBin_('b',_10) + 7 itemInBin_('c',_10)
 + 32 itemInBin_('d',_10) + 2 itemInBin_('e',_10) + 32 itemInBin_('f',_10)
 + 5 itemInBin_('g',_10) + 7 itemInBin_('h',_10) + 9 itemInBin_('i',_10)
 + 12 itemInBin_('k',_10) + 11 itemInBin_('l',_10) + itemInBin_('m',_10)
 + 2 itemInBin_('n',_10) <= 0
The_sum_of_item_sizes_must_be_smaller_than_the_bin____11: - 32 BinUsed_11
 + 5 itemInBin_('a',_11) + 6 itemInBin_('b',_11) + 7 itemInBin_('c',_11)
 + 32 itemInBin_('d',_11) + 2 itemInBin_('e',_11) + 32 itemInBin_('f',_11)
 + 5 itemInBin_('g',_11) + 7 itemInBin_('h',_11) + 9 itemInBin_('i',_11)
 + 12 itemInBin_('k',_11) + 11 itemInBin_('l',_11) + itemInBin_('m',_11)
 + 2 itemInBin_('n',_11) <= 0
The_sum_of_item_sizes_must_be_smaller_than_the_bin____12: - 32 BinUsed_12
 + 5 itemInBin_('a',_12) + 6 itemInBin_('b',_12) + 7 itemInBin_('c',_12)
 + 32 itemInBin_('d',_12) + 2 itemInBin_('e',_12) + 32 itemInBin_('f',_12)
 + 5 itemInBin_('g',_12) + 7 itemInBin_('h',_12) + 9 itemInBin_('i',_12)
 + 12 itemInBin_('k',_12) + 11 itemInBin_('l',_12) + itemInBin_('m',_12)
 + 2 itemInBin_('n',_12) <= 0
The_sum_of_item_sizes_must_be_smaller_than_the_bin____13: - 32 BinUsed_13
 + 5 itemInBin_('a',_13) + 6 itemInBin_('b',_13) + 7 itemInBin_('c',_13)
 + 32 itemInBin_('d',_13) + 2 itemInBin_('e',_13) + 32 itemInBin_('f',_13)
 + 5 itemInBin_('g',_13) + 7 itemInBin_('h',_13) + 9 itemInBin_('i',_13)
 + 12 itemInBin_('k',_13) + 11 itemInBin_('l',_13) + itemInBin_('m',_13)
 + 2 itemInBin_('n',_13) <= 0
The_sum_of_item_sizes_must_be_smaller_than_the_bin____14: - 32 BinUsed_14
 + 5 itemInBin_('a',_14) + 6 itemInBin_('b',_14) + 7 itemInBin_('c',_14)
 + 32 itemInBin_('d',_14) + 2 itemInBin_('e',_14) + 32 itemInBin_('f',_14)
 + 5 itemInBin_('g',_14) + 7 itemInBin_('h',_14) + 9 itemInBin_('i',_14)
 + 12 itemInBin_('k',_14) + 11 itemInBin_('l',_14) + itemInBin_('m',_14)
 + 2 itemInBin_('n',_14) <= 0
The_sum_of_item_sizes_must_be_smaller_than_the_bin____15: - 32 BinUsed_15
 + 5 itemInBin_('a',_15) + 6 itemInBin_('b',_15) + 7 itemInBin_('c',_15)
 + 32 itemInBin_('d',_15) + 2 itemInBin_('e',_15) + 32 itemInBin_('f',_15)
 + 5 itemInBin_('g',_15) + 7 itemInBin_('h',_15) + 9 itemInBin_('i',_15)
 + 12 itemInBin_('k',_15) + 11 itemInBin_('l',_15) + itemInBin_('m',_15)
 + 2 itemInBin_('n',_15) <= 0
The_sum_of_item_sizes_must_be_smaller_than_the_bin____16: - 32 BinUsed_16
 + 5 itemInBin_('a',_16) + 6 itemInBin_('b',_16) + 7 itemInBin_('c',_16)
 + 32 itemInBin_('d',_16) + 2 itemInBin_('e',_16) + 32 itemInBin_('f',_16)
 + 5 itemInBin_('g',_16) + 7 itemInBin_('h',_16) + 9 itemInBin_('i',_16)
 + 12 itemInBin_('k',_16) + 11 itemInBin_('l',_16) + itemInBin_('m',_16)
 + 2 itemInBin_('n',_16) <= 0
The_sum_of_item_sizes_must_be_smaller_than_the_bin____17: - 32 BinUsed_17
 + 5 itemInBin_('a',_17) + 6 itemInBin_('b',_17) + 7 itemInBin_('c',_17)
 + 32 itemInBin_('d',_17) + 2 itemInBin_('e',_17) + 32 itemInBin_('f',_17)
 + 5 itemInBin_('g',_17) + 7 itemInBin_('h',_17) + 9 itemInBin_('i',_17)
 + 12 itemInBin_('k',_17) + 11 itemInBin_('l',_17) + itemInBin_('m',_17)
 + 2 itemInBin_('n',_17) <= 0
The_sum_of_item_sizes_must_be_smaller_than_the_bin____18: - 32 BinUsed_18
 + 5 itemInBin_('a',_18) + 6 itemInBin_('b',_18) + 7 itemInBin_('c',_18)
 + 32 itemInBin_('d',_18) + 2 itemInBin_('e',_18) + 32 itemInBin_('f',_18)
 + 5 itemInBin_('g',_18) + 7 itemInBin_('h',_18) + 9 itemInBin_('i',_18)
 + 12 itemInBin_('k',_18) + 11 itemInBin_('l',_18) + itemInBin_('m',_18)
 + 2 itemInBin_('n',_18) <= 0
The_sum_of_item_sizes_must_be_smaller_than_the_bin____19: - 32 BinUsed_19
 + 5 itemInBin_('a',_19) + 6 itemInBin_('b',_19) + 7 itemInBin_('c',_19)
 + 32 itemInBin_('d',_19) + 2 itemInBin_('e',_19) + 32 itemInBin_('f',_19)
 + 5 itemInBin_('g',_19) + 7 itemInBin_('h',_19) + 9 itemInBin_('i',_19)
 + 12 itemInBin_('k',_19) + 11 itemInBin_('l',_19) + itemInBin_('m',_19)
 + 2 itemInBin_('n',_19) <= 0
The_sum_of_item_sizes_must_be_smaller_than_the_bin____2: - 32 BinUsed_2
 + 5 itemInBin_('a',_2) + 6 itemInBin_('b',_2) + 7 itemInBin_('c',_2)
 + 32 itemInBin_('d',_2) + 2 itemInBin_('e',_2) + 32 itemInBin_('f',_2)
 + 5 itemInBin_('g',_2) + 7 itemInBin_('h',_2) + 9 itemInBin_('i',_2)
 + 12 itemInBin_('k',_2) + 11 itemInBin_('l',_2) + itemInBin_('m',_2)
 + 2 itemInBin_('n',_2) <= 0
The_sum_of_item_sizes_must_be_smaller_than_the_bin____20: - 32 BinUsed_20
 + 5 itemInBin_('a',_20) + 6 itemInBin_('b',_20) + 7 itemInBin_('c',_20)
 + 32 itemInBin_('d',_20) + 2 itemInBin_('e',_20) + 32 itemInBin_('f',_20)
 + 5 itemInBin_('g',_20) + 7 itemInBin_('h',_20) + 9 itemInBin_('i',_20)
 + 12 itemInBin_('k',_20) + 11 itemInBin_('l',_20) + itemInBin_('m',_20)
 + 2 itemInBin_('n',_20) <= 0
The_sum_of_item_sizes_must_be_smaller_than_the_bin____21: - 32 BinUsed_21
 + 5 itemInBin_('a',_21) + 6 itemInBin_('b',_21) + 7 itemInBin_('c',_21)
 + 32 itemInBin_('d',_21) + 2 itemInBin_('e',_21) + 32 itemInBin_('f',_21)
 + 5 itemInBin_('g',_21) + 7 itemInBin_('h',_21) + 9 itemInBin_('i',_21)
 + 12 itemInBin_('k',_21) + 11 itemInBin_('l',_21) + itemInBin_('m',_21)
 + 2 itemInBin_('n',_21) <= 0
The_sum_of_item_sizes_must_be_smaller_than_the_bin____22: - 32 BinUsed_22
 + 5 itemInBin_('a',_22) + 6 itemInBin_('b',_22) + 7 itemInBin_('c',_22)
 + 32 itemInBin_('d',_22) + 2 itemInBin_('e',_22) + 32 itemInBin_('f',_22)
 + 5 itemInBin_('g',_22) + 7 itemInBin_('h',_22) + 9 itemInBin_('i',_22)
 + 12 itemInBin_('k',_22) + 11 itemInBin_('l',_22) + itemInBin_('m',_22)
 + 2 itemInBin_('n',_22) <= 0
The_sum_of_item_sizes_must_be_smaller_than_the_bin____23: - 32 BinUsed_23
 + 5 itemInBin_('a',_23) + 6 itemInBin_('b',_23) + 7 itemInBin_('c',_23)
 + 32 itemInBin_('d',_23) + 2 itemInBin_('e',_23) + 32 itemInBin_('f',_23)
 + 5 itemInBin_('g',_23) + 7 itemInBin_('h',_23) + 9 itemInBin_('i',_23)
 + 12 itemInBin_('k',_23) + 11 itemInBin_('l',_23) + itemInBin_('m',_23)
 + 2 itemInBin_('n',_23) <= 0
The_sum_of_item_sizes_must_be_smaller_than_the_bin____24: - 32 BinUsed_24
 + 5 itemInBin_('a',_24) + 6 itemInBin_('b',_24) + 7 itemInBin_('c',_24)
 + 32 itemInBin_('d',_24) + 2 itemInBin_('e',_24) + 32 itemInBin_('f',_24)
 + 5 itemInBin_('g',_24) + 7 itemInBin_('h',_24) + 9 itemInBin_('i',_24)
 + 12 itemInBin_('k',_24) + 11 itemInBin_('l',_24) + itemInBin_('m',_24)
 + 2 itemInBin_('n',_24) <= 0
The_sum_of_item_sizes_must_be_smaller_than_the_bin____25: - 32 BinUsed_25
 + 5 itemInBin_('a',_25) + 6 itemInBin_('b',_25) + 7 itemInBin_('c',_25)
 + 32 itemInBin_('d',_25) + 2 itemInBin_('e',_25) + 32 itemInBin_('f',_25)
 + 5 itemInBin_('g',_25) + 7 itemInBin_('h',_25) + 9 itemInBin_('i',_25)
 + 12 itemInBin_('k',_25) + 11 itemInBin_('l',_25) + itemInBin_('m',_25)
 + 2 itemInBin_('n',_25) <= 0
The_sum_of_item_sizes_must_be_smaller_than_the_bin____26: - 32 BinUsed_26
 + 5 itemInBin_('a',_26) + 6 itemInBin_('b',_26) + 7 itemInBin_('c',_26)
 + 32 itemInBin_('d',_26) + 2 itemInBin_('e',_26) + 32 itemInBin_('f',_26)
 + 5 itemInBin_('g',_26) + 7 itemInBin_('h',_26) + 9 itemInBin_('i',_26)
 + 12 itemInBin_('k',_26) + 11 itemInBin_('l',_26) + itemInBin_('m',_26)
 + 2 itemInBin_('n',_26) <= 0
The_sum_of_item_sizes_must_be_smaller_than_the_bin____27: - 32 BinUsed_27
 + 5 itemInBin_('a',_27) + 6 itemInBin_('b',_27) + 7 itemInBin_('c',_27)
 + 32 itemInBin_('d',_27) + 2 itemInBin_('e',_27) + 32 itemInBin_('f',_27)
 + 5 itemInBin_('g',_27) + 7 itemInBin_('h',_27) + 9 itemInBin_('i',_27)
 + 12 itemInBin_('k',_27) + 11 itemInBin_('l',_27) + itemInBin_('m',_27)
 + 2 itemInBin_('n',_27) <= 0
The_sum_of_item_sizes_must_be_smaller_than_the_bin____28: - 32 BinUsed_28
 + 5 itemInBin_('a',_28) + 6 itemInBin_('b',_28) + 7 itemInBin_('c',_28)
 + 32 itemInBin_('d',_28) + 2 itemInBin_('e',_28) + 32 itemInBin_('f',_28)
 + 5 itemInBin_('g',_28) + 7 itemInBin_('h',_28) + 9 itemInBin_('i',_28)
 + 12 itemInBin_('k',_28) + 11 itemInBin_('l',_28) + itemInBin_('m',_28)
 + 2 itemInBin_('n',_28) <= 0
The_sum_of_item_sizes_must_be_smaller_than_the_bin____29: - 32 BinUsed_29
 + 5 itemInBin_('a',_29) + 6 itemInBin_('b',_29) + 7 itemInBin_('c',_29)
 + 32 itemInBin_('d',_29) + 2 itemInBin_('e',_29) + 32 itemInBin_('f',_29)
 + 5 itemInBin_('g',_29) + 7 itemInBin_('h',_29) + 9 itemInBin_('i',_29)
 + 12 itemInBin_('k',_29) + 11 itemInBin_('l',_29) + itemInBin_('m',_29)
 + 2 itemInBin_('n',_29) <= 0
The_sum_of_item_sizes_must_be_smaller_than_the_bin____3: - 32 BinUsed_3
 + 5 itemInBin_('a',_3) + 6 itemInBin_('b',_3) + 7 itemInBin_('c',_3)
 + 32 itemInBin_('d',_3) + 2 itemInBin_('e',_3) + 32 itemInBin_('f',_3)
 + 5 itemInBin_('g',_3) + 7 itemInBin_('h',_3) + 9 itemInBin_('i',_3)
 + 12 itemInBin_('k',_3) + 11 itemInBin_('l',_3) + itemInBin_('m',_3)
 + 2 itemInBin_('n',_3) <= 0
The_sum_of_item_sizes_must_be_smaller_than_the_bin____30: - 32 BinUsed_30
 + 5 itemInBin_('a',_30) + 6 itemInBin_('b',_30) + 7 itemInBin_('c',_30)
 + 32 itemInBin_('d',_30) + 2 itemInBin_('e',_30) + 32 itemInBin_('f',_30)
 + 5 itemInBin_('g',_30) + 7 itemInBin_('h',_30) + 9 itemInBin_('i',_30)
 + 12 itemInBin_('k',_30) + 11 itemInBin_('l',_30) + itemInBin_('m',_30)
 + 2 itemInBin_('n',_30) <= 0
The_sum_of_item_sizes_must_be_smaller_than_the_bin____31: - 32 BinUsed_31
 + 5 itemInBin_('a',_31) + 6 itemInBin_('b',_31) + 7 itemInBin_('c',_31)
 + 32 itemInBin_('d',_31) + 2 itemInBin_('e',_31) + 32 itemInBin_('f',_31)
 + 5 itemInBin_('g',_31) + 7 itemInBin_('h',_31) + 9 itemInBin_('i',_31)
 + 12 itemInBin_('k',_31) + 11 itemInBin_('l',_31) + itemInBin_('m',_31)
 + 2 itemInBin_('n',_31) <= 0
The_sum_of_item_sizes_must_be_smaller_than_the_bin____4: - 32 BinUsed_4
 + 5 itemInBin_('a',_4) + 6 itemInBin_('b',_4) + 7 itemInBin_('c',_4)
 + 32 itemInBin_('d',_4) + 2 itemInBin_('e',_4) + 32 itemInBin_('f',_4)
 + 5 itemInBin_('g',_4) + 7 itemInBin_('h',_4) + 9 itemInBin_('i',_4)
 + 12 itemInBin_('k',_4) + 11 itemInBin_('l',_4) + itemInBin_('m',_4)
 + 2 itemInBin_('n',_4) <= 0
The_sum_of_item_sizes_must_be_smaller_than_the_bin____5: - 32 BinUsed_5
 + 5 itemInBin_('a',_5) + 6 itemInBin_('b',_5) + 7 itemInBin_('c',_5)
 + 32 itemInBin_('d',_5) + 2 itemInBin_('e',_5) + 32 itemInBin_('f',_5)
 + 5 itemInBin_('g',_5) + 7 itemInBin_('h',_5) + 9 itemInBin_('i',_5)
 + 12 itemInBin_('k',_5) + 11 itemInBin_('l',_5) + itemInBin_('m',_5)
 + 2 itemInBin_('n',_5) <= 0
The_sum_of_item_sizes_must_be_smaller_than_the_bin____6: - 32 BinUsed_6
 + 5 itemInBin_('a',_6) + 6 itemInBin_('b',_6) + 7 itemInBin_('c',_6)
 + 32 itemInBin_('d',_6) + 2 itemInBin_('e',_6) + 32 itemInBin_('f',_6)
 + 5 itemInBin_('g',_6) + 7 itemInBin_('h',_6) + 9 itemInBin_('i',_6)
 + 12 itemInBin_('k',_6) + 11 itemInBin_('l',_6) + itemInBin_('m',_6)
 + 2 itemInBin_('n',_6) <= 0
The_sum_of_item_sizes_must_be_smaller_than_the_bin____7: - 32 BinUsed_7
 + 5 itemInBin_('a',_7) + 6 itemInBin_('b',_7) + 7 itemInBin_('c',_7)
 + 32 itemInBin_('d',_7) + 2 itemInBin_('e',_7) + 32 itemInBin_('f',_7)
 + 5 itemInBin_('g',_7) + 7 itemInBin_('h',_7) + 9 itemInBin_('i',_7)
 + 12 itemInBin_('k',_7) + 11 itemInBin_('l',_7) + itemInBin_('m',_7)
 + 2 itemInBin_('n',_7) <= 0
The_sum_of_item_sizes_must_be_smaller_than_the_bin____8: - 32 BinUsed_8
 + 5 itemInBin_('a',_8) + 6 itemInBin_('b',_8) + 7 itemInBin_('c',_8)
 + 32 itemInBin_('d',_8) + 2 itemInBin_('e',_8) + 32 itemInBin_('f',_8)
 + 5 itemInBin_('g',_8) + 7 itemInBin_('h',_8) + 9 itemInBin_('i',_8)
 + 12 itemInBin_('k',_8) + 11 itemInBin_('l',_8) + itemInBin_('m',_8)
 + 2 itemInBin_('n',_8) <= 0
The_sum_of_item_sizes_must_be_smaller_than_the_bin____9: - 32 BinUsed_9
 + 5 itemInBin_('a',_9) + 6 itemInBin_('b',_9) + 7 itemInBin_('c',_9)
 + 32 itemInBin_('d',_9) + 2 itemInBin_('e',_9) + 32 itemInBin_('f',_9)
 + 5 itemInBin_('g',_9) + 7 itemInBin_('h',_9) + 9 itemInBin_('i',_9)
 + 12 itemInBin_('k',_9) + 11 itemInBin_('l',_9) + itemInBin_('m',_9)
 + 2 itemInBin_('n',_9) <= 0
Binaries
BinUsed_0
BinUsed_1
BinUsed_10
BinUsed_11
BinUsed_12
BinUsed_13
BinUsed_14
BinUsed_15
BinUsed_16
BinUsed_17
BinUsed_18
BinUsed_19
BinUsed_2
BinUsed_20
BinUsed_21
BinUsed_22
BinUsed_23
BinUsed_24
BinUsed_25
BinUsed_26
BinUsed_27
BinUsed_28
BinUsed_29
BinUsed_3
BinUsed_30
BinUsed_31
BinUsed_4
BinUsed_5
BinUsed_6
BinUsed_7
BinUsed_8
BinUsed_9
itemInBin_('a',_0)
itemInBin_('a',_1)
itemInBin_('a',_10)
itemInBin_('a',_11)
itemInBin_('a',_12)
itemInBin_('a',_13)
itemInBin_('a',_14)
itemInBin_('a',_15)
itemInBin_('a',_16)
itemInBin_('a',_17)
itemInBin_('a',_18)
itemInBin_('a',_19)
itemInBin_('a',_2)
itemInBin_('a',_20)
itemInBin_('a',_21)
itemInBin_('a',_22)
itemInBin_('a',_23)
itemInBin_('a',_24)
itemInBin_('a',_25)
itemInBin_('a',_26)
itemInBin_('a',_27)
itemInBin_('a',_28)
itemInBin_('a',_29)
itemInBin_('a',_3)
itemInBin_('a',_30)
itemInBin_('a',_31)
itemInBin_('a',_4)
itemInBin_('a',_5)
itemInBin_('a',_6)
itemInBin_('a',_7)
itemInBin_('a',_8)
itemInBin_('a',_9)
itemInBin_('b',_0)
itemInBin_('b',_1)
itemInBin_('b',_10)
itemInBin_('b',_11)
itemInBin_('b',_12)
itemInBin_('b',_13)
itemInBin_('b',_14)
itemInBin_('b',_15)
itemInBin_('b',_16)
itemInBin_('b',_17)
itemInBin_('b',_18)
itemInBin_('b',_19)
itemInBin_('b',_2)
itemInBin_('b',_20)
itemInBin_('b',_21)
itemInBin_('b',_22)
itemInBin_('b',_23)
itemInBin_('b',_24)
itemInBin_('b',_25)
itemInBin_('b',_26)
itemInBin_('b',_27)
itemInBin_('b',_28)
itemInBin_('b',_29)
itemInBin_('b',_3)
itemInBin_('b',_30)
itemInBin_('b',_31)
itemInBin_('b',_4)
itemInBin_('b',_5)
itemInBin_('b',_6)
itemInBin_('b',_7)
itemInBin_('b',_8)
itemInBin_('b',_9)
itemInBin_('c',_0)
itemInBin_('c',_1)
itemInBin_('c',_10)
itemInBin_('c',_11)
itemInBin_('c',_12)
itemInBin_('c',_13)
itemInBin_('c',_14)
itemInBin_('c',_15)
itemInBin_('c',_16)
itemInBin_('c',_17)
itemInBin_('c',_18)
itemInBin_('c',_19)
itemInBin_('c',_2)
itemInBin_('c',_20)
itemInBin_('c',_21)
itemInBin_('c',_22)
itemInBin_('c',_23)
itemInBin_('c',_24)
itemInBin_('c',_25)
itemInBin_('c',_26)
itemInBin_('c',_27)
itemInBin_('c',_28)
itemInBin_('c',_29)
itemInBin_('c',_3)
itemInBin_('c',_30)
itemInBin_('c',_31)
itemInBin_('c',_4)
itemInBin_('c',_5)
itemInBin_('c',_6)
itemInBin_('c',_7)
itemInBin_('c',_8)
itemInBin_('c',_9)
itemInBin_('d',_0)
itemInBin_('d',_1)
itemInBin_('d',_10)
itemInBin_('d',_11)
itemInBin_('d',_12)
itemInBin_('d',_13)
itemInBin_('d',_14)
itemInBin_('d',_15)
itemInBin_('d',_16)
itemInBin_('d',_17)
itemInBin_('d',_18)
itemInBin_('d',_19)
itemInBin_('d',_2)
itemInBin_('d',_20)
itemInBin_('d',_21)
itemInBin_('d',_22)
itemInBin_('d',_23)
itemInBin_('d',_24)
itemInBin_('d',_25)
itemInBin_('d',_26)
itemInBin_('d',_27)
itemInBin_('d',_28)
itemInBin_('d',_29)
itemInBin_('d',_3)
itemInBin_('d',_30)
itemInBin_('d',_31)
itemInBin_('d',_4)
itemInBin_('d',_5)
itemInBin_('d',_6)
itemInBin_('d',_7)
itemInBin_('d',_8)
itemInBin_('d',_9)
itemInBin_('e',_0)
itemInBin_('e',_1)
itemInBin_('e',_10)
itemInBin_('e',_11)
itemInBin_('e',_12)
itemInBin_('e',_13)
itemInBin_('e',_14)
itemInBin_('e',_15)
itemInBin_('e',_16)
itemInBin_('e',_17)
itemInBin_('e',_18)
itemInBin_('e',_19)
itemInBin_('e',_2)
itemInBin_('e',_20)
itemInBin_('e',_21)
itemInBin_('e',_22)
itemInBin_('e',_23)
itemInBin_('e',_24)
itemInBin_('e',_25)
itemInBin_('e',_26)
itemInBin_('e',_27)
itemInBin_('e',_28)
itemInBin_('e',_29)
itemInBin_('e',_3)
itemInBin_('e',_30)
itemInBin_('e',_31)
itemInBin_('e',_4)
itemInBin_('e',_5)
itemInBin_('e',_6)
itemInBin_('e',_7)
itemInBin_('e',_8)
itemInBin_('e',_9)
itemInBin_('f',_0)
itemInBin_('f',_1)
itemInBin_('f',_10)
itemInBin_('f',_11)
itemInBin_('f',_12)
itemInBin_('f',_13)
itemInBin_('f',_14)
itemInBin_('f',_15)
itemInBin_('f',_16)
itemInBin_('f',_17)
itemInBin_('f',_18)
itemInBin_('f',_19)
itemInBin_('f',_2)
itemInBin_('f',_20)
itemInBin_('f',_21)
itemInBin_('f',_22)
itemInBin_('f',_23)
itemInBin_('f',_24)
itemInBin_('f',_25)
itemInBin_('f',_26)
itemInBin_('f',_27)
itemInBin_('f',_28)
itemInBin_('f',_29)
itemInBin_('f',_3)
itemInBin_('f',_30)
itemInBin_('f',_31)
itemInBin_('f',_4)
itemInBin_('f',_5)
itemInBin_('f',_6)
itemInBin_('f',_7)
itemInBin_('f',_8)
itemInBin_('f',_9)
itemInBin_('g',_0)
itemInBin_('g',_1)
itemInBin_('g',_10)
itemInBin_('g',_11)
itemInBin_('g',_12)
itemInBin_('g',_13)
itemInBin_('g',_14)
itemInBin_('g',_15)
itemInBin_('g',_16)
itemInBin_('g',_17)
itemInBin_('g',_18)
itemInBin_('g',_19)
itemInBin_('g',_2)
itemInBin_('g',_20)
itemInBin_('g',_21)
itemInBin_('g',_22)
itemInBin_('g',_23)
itemInBin_('g',_24)
itemInBin_('g',_25)
itemInBin_('g',_26)
itemInBin_('g',_27)
itemInBin_('g',_28)
itemInBin_('g',_29)
itemInBin_('g',_3)
itemInBin_('g',_30)
itemInBin_('g',_31)
itemInBin_('g',_4)
itemInBin_('g',_5)
itemInBin_('g',_6)
itemInBin_('g',_7)
itemInBin_('g',_8)
itemInBin_('g',_9)
itemInBin_('h',_0)
itemInBin_('h',_1)
itemInBin_('h',_10)
itemInBin_('h',_11)
itemInBin_('h',_12)
itemInBin_('h',_13)
itemInBin_('h',_14)
itemInBin_('h',_15)
itemInBin_('h',_16)
itemInBin_('h',_17)
itemInBin_('h',_18)
itemInBin_('h',_19)
itemInBin_('h',_2)
itemInBin_('h',_20)
itemInBin_('h',_21)
itemInBin_('h',_22)
itemInBin_('h',_23)
itemInBin_('h',_24)
itemInBin_('h',_25)
itemInBin_('h',_26)
itemInBin_('h',_27)
itemInBin_('h',_28)
itemInBin_('h',_29)
itemInBin_('h',_3)
itemInBin_('h',_30)
itemInBin_('h',_31)
itemInBin_('h',_4)
itemInBin_('h',_5)
itemInBin_('h',_6)
itemInBin_('h',_7)
itemInBin_('h',_8)
itemInBin_('h',_9)
itemInBin_('i',_0)
itemInBin_('i',_1)
itemInBin_('i',_10)
itemInBin_('i',_11)
itemInBin_('i',_12)
itemInBin_('i',_13)
itemInBin_('i',_14)
itemInBin_('i',_15)
itemInBin_('i',_16)
itemInBin_('i',_17)
itemInBin_('i',_18)
itemInBin_('i',_19)
itemInBin_('i',_2)
itemInBin_('i',_20)
itemInBin_('i',_21)
itemInBin_('i',_22)
itemInBin_('i',_23)
itemInBin_('i',_24)
itemInBin_('i',_25)
itemInBin_('i',_26)
itemInBin_('i',_27)
itemInBin_('i',_28)
itemInBin_('i',_29)
itemInBin_('i',_3)
itemInBin_('i',_30)
itemInBin_('i',_31)
itemInBin_('i',_4)
itemInBin_('i',_5)
itemInBin_('i',_6)
itemInBin_('i',_7)
itemInBin_('i',_8)
itemInBin_('i',_9)
itemInBin_('k',_0)
itemInBin_('k',_1)
itemInBin_('k',_10)
itemInBin_('k',_11)
itemInBin_('k',_12)
itemInBin_('k',_13)
itemInBin_('k',_14)
itemInBin_('k',_15)
itemInBin_('k',_16)
itemInBin_('k',_17)
itemInBin_('k',_18)
itemInBin_('k',_19)
itemInBin_('k',_2)
itemInBin_('k',_20)
itemInBin_('k',_21)
itemInBin_('k',_22)
itemInBin_('k',_23)
itemInBin_('k',_24)
itemInBin_('k',_25)
itemInBin_('k',_26)
itemInBin_('k',_27)
itemInBin_('k',_28)
itemInBin_('k',_29)
itemInBin_('k',_3)
itemInBin_('k',_30)
itemInBin_('k',_31)
itemInBin_('k',_4)
itemInBin_('k',_5)
itemInBin_('k',_6)
itemInBin_('k',_7)
itemInBin_('k',_8)
itemInBin_('k',_9)
itemInBin_('l',_0)
itemInBin_('l',_1)
itemInBin_('l',_10)
itemInBin_('l',_11)
itemInBin_('l',_12)
itemInBin_('l',_13)
itemInBin_('l',_14)
itemInBin_('l',_15)
itemInBin_('l',_16)
itemInBin_('l',_17)
itemInBin_('l',_18)
itemInBin_('l',_19)
itemInBin_('l',_2)
itemInBin_('l',_20)
itemInBin_('l',_21)
itemInBin_('l',_22)
itemInBin_('l',_23)
itemInBin_('l',_24)
itemInBin_('l',_25)
itemInBin_('l',_26)
itemInBin_('l',_27)
itemInBin_('l',_28)
itemInBin_('l',_29)
itemInBin_('l',_3)
itemInBin_('l',_30)
itemInBin_('l',_31)
itemInBin_('l',_4)
itemInBin_('l',_5)
itemInBin_('l',_6)
itemInBin_('l',_7)
itemInBin_('l',_8)
itemInBin_('l',_9)
itemInBin_('m',_0)
itemInBin_('m',_1)
itemInBin_('m',_10)
itemInBin_('m',_11)
itemInBin_('m',_12)
itemInBin_('m',_13)
itemInBin_('m',_14)
itemInBin_('m',_15)
itemInBin_('m',_16)
itemInBin_('m',_17)
itemInBin_('m',_18)
itemInBin_('m',_19)
itemInBin_('m',_2)
itemInBin_('m',_20)
itemInBin_('m',_21)
itemInBin_('m',_22)
itemInBin_('m',_23)
itemInBin_('m',_24)
itemInBin_('m',_25)
itemInBin_('m',_26)
itemInBin_('m',_27)
itemInBin_('m',_28)
itemInBin_('m',_29)
itemInBin_('m',_3)
itemInBin_('m',_30)
itemInBin_('m',_31)
itemInBin_('m',_4)
itemInBin_('m',_5)
itemInBin_('m',_6)
itemInBin_('m',_7)
itemInBin_('m',_8)
itemInBin_('m',_9)
itemInBin_('n',_0)
itemInBin_('n',_1)
itemInBin_('n',_10)
itemInBin_('n',_11)
itemInBin_('n',_12)
itemInBin_('n',_13)
itemInBin_('n',_14)
itemInBin_('n',_15)
itemInBin_('n',_16)
itemInBin_('n',_17)
itemInBin_('n',_18)
itemInBin_('n',_19)
itemInBin_('n',_2)
itemInBin_('n',_20)
itemInBin_('n',_21)
itemInBin_('n',_22)
itemInBin_('n',_23)
itemInBin_('n',_24)
itemInBin_('n',_25)
itemInBin_('n',_26)
itemInBin_('n',_27)
itemInBin_('n',_28)
itemInBin_('n',_29)
itemInBin_('n',_3)
itemInBin_('n',_30)
itemInBin_('n',_31)
itemInBin_('n',_4)
itemInBin_('n',_5)
itemInBin_('n',_6)
itemInBin_('n',_7)
itemInBin_('n',_8)
itemInBin_('n',_9)
End
